SDVRP instances/custom_instances/p02_14_splitx10_0.vrp
NAME:p02_14_splitx10_
BEST_KNOWN: 0
COMMENT: 0
DIMENSION: 321
CAPACITY: 1400
EDGE_WEIGHT_FORMAT: FUNCTION
EDGE_WEIGHT_TYPE: EXACT_2D
NODE_COORD_SECTION
1 0.00000 0.00000
2 -23 -21
3 -23 -21
4 -23 -21
5 -23 -21
6 -31 -37
7 -31 -37
8 -22 -45
9 -22 -45
10 -22 -45
11 18 22
12 18 22
13 18 22
14 18 22
15 18 22
16 18 22
17 26 -45
18 26 -45
19 26 -45
20 15 -8
21 15 -8
22 15 -8
23 15 -8
24 15 -8
25 15 -8
26 19 33
27 19 33
28 19 33
29 19 33
30 19 33
31 19 33
32 19 33
33 33 16
34 33 16
35 11 19
36 11 19
37 11 19
38 11 19
39 11 19
40 11 19
41 6 25
42 6 25
43 6 25
44 6 25
45 6 25
46 6 25
47 6 25
48 6 25
49 5 32
50 5 32
51 5 32
52 5 32
53 27 5
54 27 5
55 27 5
56 27 5
57 -10 8
58 -10 8
59 -10 8
60 -10 8
61 48 -28
62 48 -28
63 48 -28
64 48 -28
65 48 -28
66 48 -28
67 16 -32
68 16 -32
69 16 -32
70 16 -32
71 16 -32
72 16 -32
73 16 -32
74 1 -48
75 1 -48
76 1 -48
77 1 -48
78 1 -48
79 -47 -7
80 -47 -7
81 -47 -7
82 -47 -7
83 -47 -7
84 -23 -13
85 -23 -13
86 -4 25
87 -4 25
88 -4 25
89 -4 25
90 -4 25
91 42 35
92 42 35
93 -9 -33
94 -9 -33
95 -9 -33
96 -9 -33
97 49 26
98 49 26
99 49 26
100 49 26
101 22 24
102 22 24
103 22 24
104 22 24
105 22 24
106 -16 23
107 -16 23
108 -16 23
109 30 49
110 30 49
111 30 49
112 30 49
113 30 49
114 30 49
115 -14 29
116 -14 29
117 -14 29
118 -14 29
119 8 -28
120 8 -28
121 8 -28
122 8 -28
123 -43 -10
124 -43 -10
125 -43 -10
126 -43 -10
127 -43 -10
128 -37 24
129 -37 24
130 43 38
131 43 38
132 43 38
133 43 38
134 43 38
135 13 -24
136 13 -24
137 13 -24
138 13 -24
139 13 -24
140 -46 -37
141 -46 -37
142 -46 -37
143 -46 -37
144 -46 -37
145 -46 -37
146 -39 45
147 -39 45
148 -39 45
149 -39 45
150 -39 45
151 -39 45
152 34 5
153 34 5
154 34 5
155 34 5
156 34 5
157 23 -4
158 23 -4
159 23 -4
160 23 -4
161 21 -19
162 21 -19
163 21 -19
164 21 -19
165 -36 31
166 -36 31
167 -36 31
168 -12 -39
169 -12 -39
170 -12 -39
171 22 -19
172 22 -19
173 22 -19
174 22 -19
175 22 -19
176 34 -6
177 34 -6
178 34 -6
179 34 -6
180 34 -6
181 -11 35
182 -11 35
183 -11 35
184 -11 35
185 -11 35
186 -3 34
187 -3 34
188 -3 34
189 40 47
190 40 47
191 40 47
192 40 47
193 40 47
194 27 -32
195 27 -32
196 27 -32
197 -21 -25
198 -21 -25
199 -21 -25
200 -21 -25
201 -13 -22
202 -13 -22
203 -19 8
204 -19 8
205 -19 8
206 -19 8
207 -23 30
208 -23 30
209 -23 30
210 5 3
211 9 -18
212 9 -18
213 9 -18
214 9 -18
215 9 -18
216 9 -18
217 9 -18
218 44 48
219 44 48
220 44 48
221 44 48
222 45 17
223 45 17
224 45 17
225 45 17
226 -45 23
227 -45 23
228 -45 23
229 -45 23
230 -45 23
231 -7 -35
232 -7 -35
233 -7 -35
234 -7 -35
235 -7 -35
236 -5 -42
237 -5 -42
238 -5 -42
239 -5 -42
240 -5 -42
241 29 31
242 29 31
243 29 31
244 29 31
245 29 31
246 43 -37
247 43 -37
248 43 -37
249 33 15
250 33 15
251 33 15
252 33 15
253 29 15
254 29 15
255 29 15
256 29 15
257 29 15
258 2 28
259 2 28
260 2 28
261 2 28
262 2 28
263 -9 45
264 8 40
265 8 40
266 8 40
267 -43 20
268 -43 20
269 32 -40
270 32 -40
271 32 -40
272 32 -40
273 32 -40
274 -3 11
275 -3 11
276 -3 11
277 -3 11
278 -3 11
279 -3 11
280 13 -33
281 9 43
282 9 43
283 9 43
284 42 25
285 42 25
286 -42 -8
287 -42 -8
288 -42 -8
289 -42 -8
290 -42 -8
291 -42 -8
292 9 -33
293 9 -33
294 9 -33
295 -25 44
296 -25 44
297 42 -7
298 42 -7
299 42 -7
300 42 -7
301 42 -7
302 42 -7
303 42 -7
304 -19 20
305 -19 20
306 -19 20
307 -19 20
308 -19 20
309 -19 20
310 -39 -7
311 -39 -7
312 -39 -7
313 -39 -7
314 -39 -7
315 -39 -7
316 -39 -7
317 42 24
318 42 24
319 42 24
320 42 24
321 42 24
DEMAND_SECTION
1 0
2 280
3 14
4 14
5 2
6 280
7 10
8 280
9 14
10 6
11 280
12 140
13 70
14 14
15 14
16 2
17 140
18 70
19 10
20 280
21 140
22 70
23 14
24 14
25 12
26 280
27 140
28 70
29 14
30 14
31 14
32 8
33 280
34 70
35 280
36 280
37 14
38 14
39 14
40 8
41 280
42 280
43 70
44 14
45 14
46 14
47 14
48 4
49 280
50 140
51 14
52 6
53 280
54 140
55 70
56 10
57 140
58 14
59 14
60 12
61 140
62 70
63 14
64 14
65 14
66 8
67 280
68 140
69 14
70 14
71 14
72 14
73 4
74 280
75 280
76 70
77 14
78 6
79 140
80 14
81 14
82 14
83 8
84 280
85 280
86 280
87 280
88 14
89 14
90 2
91 280
92 10
93 280
94 280
95 14
96 6
97 280
98 14
99 14
100 2
101 280
102 280
103 14
104 14
105 12
106 140
107 70
108 10
109 280
110 70
111 14
112 14
113 14
114 8
115 280
116 140
117 14
118 6
119 280
120 280
121 14
122 6
123 280
124 280
125 14
126 14
127 2
128 280
129 70
130 140
131 70
132 14
133 14
134 2
135 280
136 70
137 14
138 14
139 12
140 280
141 14
142 14
143 14
144 14
145 4
146 140
147 70
148 14
149 14
150 14
151 8
152 280
153 280
154 14
155 14
156 12
157 280
158 14
159 14
160 12
161 140
162 14
163 14
164 2
165 280
166 140
167 70
168 280
169 140
170 10
171 280
172 280
173 14
174 14
175 2
176 280
177 280
178 14
179 14
180 2
181 280
182 280
183 14
184 14
185 2
186 280
187 70
188 10
189 280
190 280
191 14
192 14
193 12
194 140
195 70
196 10
197 280
198 280
199 14
200 6
201 140
202 70
203 280
204 280
205 70
206 10
207 280
208 280
209 10
210 280
211 280
212 280
213 70
214 14
215 14
216 14
217 8
218 280
219 280
220 70
221 10
222 140
223 14
224 14
225 2
226 280
227 140
228 14
229 14
230 2
231 140
232 14
233 14
234 14
235 8
236 140
237 70
238 14
239 14
240 12
241 280
242 280
243 14
244 14
245 2
246 280
247 280
248 140
249 280
250 14
251 14
252 2
253 280
254 140
255 14
256 14
257 12
258 280
259 140
260 14
261 14
262 2
263 280
264 280
265 70
266 10
267 140
268 70
269 280
270 140
271 14
272 14
273 2
274 140
275 70
276 14
277 14
278 14
279 8
280 280
281 280
282 280
283 10
284 280
285 140
286 280
287 280
288 70
289 14
290 14
291 12
292 280
293 280
294 70
295 280
296 10
297 280
298 140
299 14
300 14
301 14
302 14
303 4
304 280
305 280
306 70
307 14
308 14
309 2
310 280
311 140
312 14
313 14
314 14
315 14
316 4
317 140
318 70
319 14
320 14
321 2
DEPOT_SECTION
1
-1
EOF