SDVRP instances/custom_instances/p02_14_splitx10_0.sol
320 -2 3 4 1 196 198 197 199 93 95 201 200 -12 11 15 13 14 10 37 34 38 35 39 36 -24 19 22 21 20 23 171 170 174 163 161 162 160 -25 31 28 29 30 27 26 100 104 101 252 -32 248 250 251 249 154 152 52 54 55 53 -47 40 41 42 43 44 46 45 89 86 85 273 -51 49 50 48 265 264 263 282 281 280 -58 57 59 56 127 128 225 226 229 228 227 266 267 -68 71 70 67 66 69 72 18 16 17 269 270 271 272 268 193 195 194 -76 74 73 75 77 238 239 235 237 236 230 232 233 231 234 92 94 -84 83 286 290 288 289 285 287 -88 87 262 294 295 150 149 147 145 148 146 165 164 166 -90 91 132 129 130 133 131 189 240 241 242 244 243 -103 102 219 220 218 217 192 191 190 188 108 113 112 110 111 109 -105 107 106 207 206 208 117 116 114 115 277 278 274 276 275 -120 121 118 119 213 211 215 216 212 210 214 -123 125 126 122 124 81 79 80 78 82 315 314 312 309 313 311 310 -137 138 134 135 136 279 291 293 292 -142 143 141 139 144 140 5 6 7 8 9 168 167 169 -155 151 153 301 299 300 302 298 296 297 178 176 179 175 177 -159 158 157 156 65 61 64 60 63 62 247 246 245 172 173 -181 182 180 184 183 187 186 185 260 261 258 259 257 -203 205 204 202 303 306 305 308 307 304 -209 -221 224 222 223 96 97 98 99 284 283 317 320 318 316 319 33 254 255 253 256 0 





OBJ=
2268.044
BEST_KNOWN=
0.000